c generated by sgen
c see http://www.cs.qub.ac.uk/~i.spence/sgen
p cnf 105 220
-2 -3 -4 0
-1 -3 -4 0
-1 -2 -4 0
-1 -2 -3 0
-6 -7 -8 0
-5 -7 -8 0
-5 -6 -8 0
-5 -6 -7 0
-10 -11 -12 0
-9 -11 -12 0
-9 -10 -12 0
-9 -10 -11 0
-14 -15 -16 0
-13 -15 -16 0
-13 -14 -16 0
-13 -14 -15 0
-18 -19 -20 0
-17 -19 -20 0
-17 -18 -20 0
-17 -18 -19 0
-22 -23 -24 0
-21 -23 -24 0
-21 -22 -24 0
-21 -22 -23 0
-26 -27 -28 0
-25 -27 -28 0
-25 -26 -28 0
-25 -26 -27 0
-30 -31 -32 0
-29 -31 -32 0
-29 -30 -32 0
-29 -30 -31 0
-34 -35 -36 0
-33 -35 -36 0
-33 -34 -36 0
-33 -34 -35 0
-38 -39 -40 0
-37 -39 -40 0
-37 -38 -40 0
-37 -38 -39 0
-42 -43 -44 0
-41 -43 -44 0
-41 -42 -44 0
-41 -42 -43 0
-46 -47 -48 0
-45 -47 -48 0
-45 -46 -48 0
-45 -46 -47 0
-50 -51 -52 0
-49 -51 -52 0
-49 -50 -52 0
-49 -50 -51 0
-54 -55 -56 0
-53 -55 -56 0
-53 -54 -56 0
-53 -54 -55 0
-58 -59 -60 0
-57 -59 -60 0
-57 -58 -60 0
-57 -58 -59 0
-62 -63 -64 0
-61 -63 -64 0
-61 -62 -64 0
-61 -62 -63 0
-66 -67 -68 0
-65 -67 -68 0
-65 -66 -68 0
-65 -66 -67 0
-70 -71 -72 0
-69 -71 -72 0
-69 -70 -72 0
-69 -70 -71 0
-74 -75 -76 0
-73 -75 -76 0
-73 -74 -76 0
-73 -74 -75 0
-78 -79 -80 0
-77 -79 -80 0
-77 -78 -80 0
-77 -78 -79 0
-82 -83 -84 0
-81 -83 -84 0
-81 -82 -84 0
-81 -82 -83 0
-86 -87 -88 0
-85 -87 -88 0
-85 -86 -88 0
-85 -86 -87 0
-90 -91 -92 0
-89 -91 -92 0
-89 -90 -92 0
-89 -90 -91 0
-94 -95 -96 0
-93 -95 -96 0
-93 -94 -96 0
-93 -94 -95 0
-98 -99 -100 0
-97 -99 -100 0
-97 -98 -100 0
-97 -98 -99 0
-101 -102 -103 0
-101 -102 -104 0
-101 -102 -105 0
-101 -103 -104 0
-101 -103 -105 0
-101 -104 -105 0
-102 -103 -104 0
-102 -103 -105 0
-102 -104 -105 0
-103 -104 -105 0
83 98 37 0
69 98 37 0
69 83 37 0
69 83 98 0
14 53 10 0
99 53 10 0
99 14 10 0
99 14 53 0
63 72 29 0
104 72 29 0
104 63 29 0
104 63 72 0
40 23 19 0
54 23 19 0
54 40 19 0
54 40 23 0
47 27 30 0
7 27 30 0
7 47 30 0
7 47 27 0
48 90 35 0
64 90 35 0
64 48 35 0
64 48 90 0
43 46 9 0
80 46 9 0
80 43 9 0
80 43 46 0
73 65 38 0
52 65 38 0
52 73 38 0
52 73 65 0
26 57 74 0
71 57 74 0
71 26 74 0
71 26 57 0
59 101 49 0
78 101 49 0
78 59 49 0
78 59 101 0
13 61 75 0
44 61 75 0
44 13 75 0
44 13 61 0
6 55 3 0
42 55 3 0
42 6 3 0
42 6 55 0
28 68 11 0
89 68 11 0
89 28 11 0
89 28 68 0
22 88 45 0
60 88 45 0
60 22 45 0
60 22 88 0
102 100 95 0
5 100 95 0
5 102 95 0
5 102 100 0
84 105 93 0
12 105 93 0
12 84 93 0
12 84 105 0
20 4 67 0
97 4 67 0
97 20 67 0
97 20 4 0
56 25 96 0
62 25 96 0
62 56 96 0
62 56 25 0
21 15 82 0
31 15 82 0
31 21 82 0
31 21 15 0
16 92 86 0
103 92 86 0
103 16 86 0
103 16 92 0
18 81 85 0
50 81 85 0
50 18 85 0
50 18 81 0
34 32 58 0
17 32 58 0
17 34 58 0
17 34 32 0
24 51 41 0
91 51 41 0
91 24 41 0
91 24 51 0
1 77 87 0
70 77 87 0
70 1 87 0
70 1 77 0
36 2 94 0
39 2 94 0
39 36 94 0
39 36 2 0
76 66 33 0
76 66 8 0
76 66 79 0
76 33 8 0
76 33 79 0
76 8 79 0
66 33 8 0
66 33 79 0
66 8 79 0
33 8 79 0
